c *********************************
c * Circuit generated by BenCGen
c *
c * CarrySkipAdder_44_44_44_InOut_G4T
c *
c * Ports with 1 gate(s): 13
c * Ports with 2 gate(s): 243
c * Ports with 4 gate(s): 11
c * Total gates: 267
c *********************************
p cnf 355 898
1 135 0
-1 -135 0
1 -134 0
135 -134 0
-1 -135 134 0
1 45 -138 0
-1 45 138 0
1 -45 138 0
-1 -45 -138 0
138 134 -89 0
-138 134 89 0
138 -134 89 0
-138 -134 -89 0
134 -139 0
138 -139 0
-134 -138 139 0
45 -140 0
1 -140 0
-45 -1 140 0
-139 137 0
-140 137 0
139 140 -137 0
2 46 -142 0
-2 46 142 0
2 -46 142 0
-2 -46 -142 0
142 137 -90 0
-142 137 90 0
142 -137 90 0
-142 -137 -90 0
137 -143 0
142 -143 0
-137 -142 143 0
46 -144 0
2 -144 0
-46 -2 144 0
-143 141 0
-144 141 0
143 144 -141 0
3 47 -146 0
-3 47 146 0
3 -47 146 0
-3 -47 -146 0
146 141 -91 0
-146 141 91 0
146 -141 91 0
-146 -141 -91 0
141 -147 0
146 -147 0
-141 -146 147 0
47 -148 0
3 -148 0
-47 -3 148 0
-147 145 0
-148 145 0
147 148 -145 0
4 48 -149 0
-4 48 149 0
4 -48 149 0
-4 -48 -149 0
149 145 -92 0
-149 145 92 0
149 -145 92 0
-149 -145 -92 0
145 -150 0
149 -150 0
-145 -149 150 0
48 -151 0
4 -151 0
-48 -4 151 0
-150 136 0
-151 136 0
150 151 -136 0
138 -152 0
142 -152 0
146 -152 0
149 -152 0
-138 -142 -146 -149 152 0
151 -153 0
-151 153 0
134 -154 0
152 -154 0
-134 -152 154 0
-154 155 0
-136 155 0
154 136 -155 0
5 49 -158 0
-5 49 158 0
5 -49 158 0
-5 -49 -158 0
158 155 -93 0
-158 155 93 0
158 -155 93 0
-158 -155 -93 0
155 -159 0
158 -159 0
-155 -158 159 0
49 -160 0
5 -160 0
-49 -5 160 0
-159 157 0
-160 157 0
159 160 -157 0
6 50 -162 0
-6 50 162 0
6 -50 162 0
-6 -50 -162 0
162 157 -94 0
-162 157 94 0
162 -157 94 0
-162 -157 -94 0
157 -163 0
162 -163 0
-157 -162 163 0
50 -164 0
6 -164 0
-50 -6 164 0
-163 161 0
-164 161 0
163 164 -161 0
7 51 -166 0
-7 51 166 0
7 -51 166 0
-7 -51 -166 0
166 161 -95 0
-166 161 95 0
166 -161 95 0
-166 -161 -95 0
161 -167 0
166 -167 0
-161 -166 167 0
51 -168 0
7 -168 0
-51 -7 168 0
-167 165 0
-168 165 0
167 168 -165 0
8 52 -169 0
-8 52 169 0
8 -52 169 0
-8 -52 -169 0
169 165 -96 0
-169 165 96 0
169 -165 96 0
-169 -165 -96 0
165 -170 0
169 -170 0
-165 -169 170 0
52 -171 0
8 -171 0
-52 -8 171 0
-170 156 0
-171 156 0
170 171 -156 0
158 -172 0
162 -172 0
166 -172 0
169 -172 0
-158 -162 -166 -169 172 0
171 -173 0
-171 173 0
155 -174 0
172 -174 0
-155 -172 174 0
-174 175 0
-156 175 0
174 156 -175 0
9 53 -178 0
-9 53 178 0
9 -53 178 0
-9 -53 -178 0
178 175 -97 0
-178 175 97 0
178 -175 97 0
-178 -175 -97 0
175 -179 0
178 -179 0
-175 -178 179 0
53 -180 0
9 -180 0
-53 -9 180 0
-179 177 0
-180 177 0
179 180 -177 0
10 54 -182 0
-10 54 182 0
10 -54 182 0
-10 -54 -182 0
182 177 -98 0
-182 177 98 0
182 -177 98 0
-182 -177 -98 0
177 -183 0
182 -183 0
-177 -182 183 0
54 -184 0
10 -184 0
-54 -10 184 0
-183 181 0
-184 181 0
183 184 -181 0
11 55 -186 0
-11 55 186 0
11 -55 186 0
-11 -55 -186 0
186 181 -99 0
-186 181 99 0
186 -181 99 0
-186 -181 -99 0
181 -187 0
186 -187 0
-181 -186 187 0
55 -188 0
11 -188 0
-55 -11 188 0
-187 185 0
-188 185 0
187 188 -185 0
12 56 -189 0
-12 56 189 0
12 -56 189 0
-12 -56 -189 0
189 185 -100 0
-189 185 100 0
189 -185 100 0
-189 -185 -100 0
185 -190 0
189 -190 0
-185 -189 190 0
56 -191 0
12 -191 0
-56 -12 191 0
-190 176 0
-191 176 0
190 191 -176 0
178 -192 0
182 -192 0
186 -192 0
189 -192 0
-178 -182 -186 -189 192 0
191 -193 0
-191 193 0
175 -194 0
192 -194 0
-175 -192 194 0
-194 195 0
-176 195 0
194 176 -195 0
13 57 -198 0
-13 57 198 0
13 -57 198 0
-13 -57 -198 0
198 195 -101 0
-198 195 101 0
198 -195 101 0
-198 -195 -101 0
195 -199 0
198 -199 0
-195 -198 199 0
57 -200 0
13 -200 0
-57 -13 200 0
-199 197 0
-200 197 0
199 200 -197 0
14 58 -202 0
-14 58 202 0
14 -58 202 0
-14 -58 -202 0
202 197 -102 0
-202 197 102 0
202 -197 102 0
-202 -197 -102 0
197 -203 0
202 -203 0
-197 -202 203 0
58 -204 0
14 -204 0
-58 -14 204 0
-203 201 0
-204 201 0
203 204 -201 0
15 59 -206 0
-15 59 206 0
15 -59 206 0
-15 -59 -206 0
206 201 -103 0
-206 201 103 0
206 -201 103 0
-206 -201 -103 0
201 -207 0
206 -207 0
-201 -206 207 0
59 -208 0
15 -208 0
-59 -15 208 0
-207 205 0
-208 205 0
207 208 -205 0
16 60 -209 0
-16 60 209 0
16 -60 209 0
-16 -60 -209 0
209 205 -104 0
-209 205 104 0
209 -205 104 0
-209 -205 -104 0
205 -210 0
209 -210 0
-205 -209 210 0
60 -211 0
16 -211 0
-60 -16 211 0
-210 196 0
-211 196 0
210 211 -196 0
198 -212 0
202 -212 0
206 -212 0
209 -212 0
-198 -202 -206 -209 212 0
211 -213 0
-211 213 0
195 -214 0
212 -214 0
-195 -212 214 0
-214 215 0
-196 215 0
214 196 -215 0
17 61 -218 0
-17 61 218 0
17 -61 218 0
-17 -61 -218 0
218 215 -105 0
-218 215 105 0
218 -215 105 0
-218 -215 -105 0
215 -219 0
218 -219 0
-215 -218 219 0
61 -220 0
17 -220 0
-61 -17 220 0
-219 217 0
-220 217 0
219 220 -217 0
18 62 -222 0
-18 62 222 0
18 -62 222 0
-18 -62 -222 0
222 217 -106 0
-222 217 106 0
222 -217 106 0
-222 -217 -106 0
217 -223 0
222 -223 0
-217 -222 223 0
62 -224 0
18 -224 0
-62 -18 224 0
-223 221 0
-224 221 0
223 224 -221 0
19 63 -226 0
-19 63 226 0
19 -63 226 0
-19 -63 -226 0
226 221 -107 0
-226 221 107 0
226 -221 107 0
-226 -221 -107 0
221 -227 0
226 -227 0
-221 -226 227 0
63 -228 0
19 -228 0
-63 -19 228 0
-227 225 0
-228 225 0
227 228 -225 0
20 64 -229 0
-20 64 229 0
20 -64 229 0
-20 -64 -229 0
229 225 -108 0
-229 225 108 0
229 -225 108 0
-229 -225 -108 0
225 -230 0
229 -230 0
-225 -229 230 0
64 -231 0
20 -231 0
-64 -20 231 0
-230 216 0
-231 216 0
230 231 -216 0
218 -232 0
222 -232 0
226 -232 0
229 -232 0
-218 -222 -226 -229 232 0
231 -233 0
-231 233 0
215 -234 0
232 -234 0
-215 -232 234 0
-234 235 0
-216 235 0
234 216 -235 0
21 65 -238 0
-21 65 238 0
21 -65 238 0
-21 -65 -238 0
238 235 -109 0
-238 235 109 0
238 -235 109 0
-238 -235 -109 0
235 -239 0
238 -239 0
-235 -238 239 0
65 -240 0
21 -240 0
-65 -21 240 0
-239 237 0
-240 237 0
239 240 -237 0
22 66 -242 0
-22 66 242 0
22 -66 242 0
-22 -66 -242 0
242 237 -110 0
-242 237 110 0
242 -237 110 0
-242 -237 -110 0
237 -243 0
242 -243 0
-237 -242 243 0
66 -244 0
22 -244 0
-66 -22 244 0
-243 241 0
-244 241 0
243 244 -241 0
23 67 -246 0
-23 67 246 0
23 -67 246 0
-23 -67 -246 0
246 241 -111 0
-246 241 111 0
246 -241 111 0
-246 -241 -111 0
241 -247 0
246 -247 0
-241 -246 247 0
67 -248 0
23 -248 0
-67 -23 248 0
-247 245 0
-248 245 0
247 248 -245 0
24 68 -249 0
-24 68 249 0
24 -68 249 0
-24 -68 -249 0
249 245 -112 0
-249 245 112 0
249 -245 112 0
-249 -245 -112 0
245 -250 0
249 -250 0
-245 -249 250 0
68 -251 0
24 -251 0
-68 -24 251 0
-250 236 0
-251 236 0
250 251 -236 0
238 -252 0
242 -252 0
246 -252 0
249 -252 0
-238 -242 -246 -249 252 0
251 -253 0
-251 253 0
235 -254 0
252 -254 0
-235 -252 254 0
-254 255 0
-236 255 0
254 236 -255 0
25 69 -258 0
-25 69 258 0
25 -69 258 0
-25 -69 -258 0
258 255 -113 0
-258 255 113 0
258 -255 113 0
-258 -255 -113 0
255 -259 0
258 -259 0
-255 -258 259 0
69 -260 0
25 -260 0
-69 -25 260 0
-259 257 0
-260 257 0
259 260 -257 0
26 70 -262 0
-26 70 262 0
26 -70 262 0
-26 -70 -262 0
262 257 -114 0
-262 257 114 0
262 -257 114 0
-262 -257 -114 0
257 -263 0
262 -263 0
-257 -262 263 0
70 -264 0
26 -264 0
-70 -26 264 0
-263 261 0
-264 261 0
263 264 -261 0
27 71 -266 0
-27 71 266 0
27 -71 266 0
-27 -71 -266 0
266 261 -115 0
-266 261 115 0
266 -261 115 0
-266 -261 -115 0
261 -267 0
266 -267 0
-261 -266 267 0
71 -268 0
27 -268 0
-71 -27 268 0
-267 265 0
-268 265 0
267 268 -265 0
28 72 -269 0
-28 72 269 0
28 -72 269 0
-28 -72 -269 0
269 265 -116 0
-269 265 116 0
269 -265 116 0
-269 -265 -116 0
265 -270 0
269 -270 0
-265 -269 270 0
72 -271 0
28 -271 0
-72 -28 271 0
-270 256 0
-271 256 0
270 271 -256 0
258 -272 0
262 -272 0
266 -272 0
269 -272 0
-258 -262 -266 -269 272 0
271 -273 0
-271 273 0
255 -274 0
272 -274 0
-255 -272 274 0
-274 275 0
-256 275 0
274 256 -275 0
29 73 -278 0
-29 73 278 0
29 -73 278 0
-29 -73 -278 0
278 275 -117 0
-278 275 117 0
278 -275 117 0
-278 -275 -117 0
275 -279 0
278 -279 0
-275 -278 279 0
73 -280 0
29 -280 0
-73 -29 280 0
-279 277 0
-280 277 0
279 280 -277 0
30 74 -282 0
-30 74 282 0
30 -74 282 0
-30 -74 -282 0
282 277 -118 0
-282 277 118 0
282 -277 118 0
-282 -277 -118 0
277 -283 0
282 -283 0
-277 -282 283 0
74 -284 0
30 -284 0
-74 -30 284 0
-283 281 0
-284 281 0
283 284 -281 0
31 75 -286 0
-31 75 286 0
31 -75 286 0
-31 -75 -286 0
286 281 -119 0
-286 281 119 0
286 -281 119 0
-286 -281 -119 0
281 -287 0
286 -287 0
-281 -286 287 0
75 -288 0
31 -288 0
-75 -31 288 0
-287 285 0
-288 285 0
287 288 -285 0
32 76 -289 0
-32 76 289 0
32 -76 289 0
-32 -76 -289 0
289 285 -120 0
-289 285 120 0
289 -285 120 0
-289 -285 -120 0
285 -290 0
289 -290 0
-285 -289 290 0
76 -291 0
32 -291 0
-76 -32 291 0
-290 276 0
-291 276 0
290 291 -276 0
278 -292 0
282 -292 0
286 -292 0
289 -292 0
-278 -282 -286 -289 292 0
291 -293 0
-291 293 0
275 -294 0
292 -294 0
-275 -292 294 0
-294 295 0
-276 295 0
294 276 -295 0
33 77 -298 0
-33 77 298 0
33 -77 298 0
-33 -77 -298 0
298 295 -121 0
-298 295 121 0
298 -295 121 0
-298 -295 -121 0
295 -299 0
298 -299 0
-295 -298 299 0
77 -300 0
33 -300 0
-77 -33 300 0
-299 297 0
-300 297 0
299 300 -297 0
34 78 -302 0
-34 78 302 0
34 -78 302 0
-34 -78 -302 0
302 297 -122 0
-302 297 122 0
302 -297 122 0
-302 -297 -122 0
297 -303 0
302 -303 0
-297 -302 303 0
78 -304 0
34 -304 0
-78 -34 304 0
-303 301 0
-304 301 0
303 304 -301 0
35 79 -306 0
-35 79 306 0
35 -79 306 0
-35 -79 -306 0
306 301 -123 0
-306 301 123 0
306 -301 123 0
-306 -301 -123 0
301 -307 0
306 -307 0
-301 -306 307 0
79 -308 0
35 -308 0
-79 -35 308 0
-307 305 0
-308 305 0
307 308 -305 0
36 80 -309 0
-36 80 309 0
36 -80 309 0
-36 -80 -309 0
309 305 -124 0
-309 305 124 0
309 -305 124 0
-309 -305 -124 0
305 -310 0
309 -310 0
-305 -309 310 0
80 -311 0
36 -311 0
-80 -36 311 0
-310 296 0
-311 296 0
310 311 -296 0
298 -312 0
302 -312 0
306 -312 0
309 -312 0
-298 -302 -306 -309 312 0
311 -313 0
-311 313 0
295 -314 0
312 -314 0
-295 -312 314 0
-314 315 0
-296 315 0
314 296 -315 0
37 81 -318 0
-37 81 318 0
37 -81 318 0
-37 -81 -318 0
318 315 -125 0
-318 315 125 0
318 -315 125 0
-318 -315 -125 0
315 -319 0
318 -319 0
-315 -318 319 0
81 -320 0
37 -320 0
-81 -37 320 0
-319 317 0
-320 317 0
319 320 -317 0
38 82 -322 0
-38 82 322 0
38 -82 322 0
-38 -82 -322 0
322 317 -126 0
-322 317 126 0
322 -317 126 0
-322 -317 -126 0
317 -323 0
322 -323 0
-317 -322 323 0
82 -324 0
38 -324 0
-82 -38 324 0
-323 321 0
-324 321 0
323 324 -321 0
39 83 -326 0
-39 83 326 0
39 -83 326 0
-39 -83 -326 0
326 321 -127 0
-326 321 127 0
326 -321 127 0
-326 -321 -127 0
321 -327 0
326 -327 0
-321 -326 327 0
83 -328 0
39 -328 0
-83 -39 328 0
-327 325 0
-328 325 0
327 328 -325 0
40 84 -329 0
-40 84 329 0
40 -84 329 0
-40 -84 -329 0
329 325 -128 0
-329 325 128 0
329 -325 128 0
-329 -325 -128 0
325 -330 0
329 -330 0
-325 -329 330 0
84 -331 0
40 -331 0
-84 -40 331 0
-330 316 0
-331 316 0
330 331 -316 0
318 -332 0
322 -332 0
326 -332 0
329 -332 0
-318 -322 -326 -329 332 0
331 -333 0
-331 333 0
315 -334 0
332 -334 0
-315 -332 334 0
-334 335 0
-316 335 0
334 316 -335 0
41 85 -338 0
-41 85 338 0
41 -85 338 0
-41 -85 -338 0
338 335 -129 0
-338 335 129 0
338 -335 129 0
-338 -335 -129 0
335 -339 0
338 -339 0
-335 -338 339 0
85 -340 0
41 -340 0
-85 -41 340 0
-339 337 0
-340 337 0
339 340 -337 0
42 86 -342 0
-42 86 342 0
42 -86 342 0
-42 -86 -342 0
342 337 -130 0
-342 337 130 0
342 -337 130 0
-342 -337 -130 0
337 -343 0
342 -343 0
-337 -342 343 0
86 -344 0
42 -344 0
-86 -42 344 0
-343 341 0
-344 341 0
343 344 -341 0
43 87 -346 0
-43 87 346 0
43 -87 346 0
-43 -87 -346 0
346 341 -131 0
-346 341 131 0
346 -341 131 0
-346 -341 -131 0
341 -347 0
346 -347 0
-341 -346 347 0
87 -348 0
43 -348 0
-87 -43 348 0
-347 345 0
-348 345 0
347 348 -345 0
44 88 -349 0
-44 88 349 0
44 -88 349 0
-44 -88 -349 0
349 345 -132 0
-349 345 132 0
349 -345 132 0
-349 -345 -132 0
345 -350 0
349 -350 0
-345 -349 350 0
88 -351 0
44 -351 0
-88 -44 351 0
-350 336 0
-351 336 0
350 351 -336 0
338 -352 0
342 -352 0
346 -352 0
349 -352 0
-338 -342 -346 -349 352 0
351 -353 0
-351 353 0
335 -354 0
352 -354 0
-335 -352 354 0
-354 355 0
-336 355 0
354 336 -355 0
355 -133 0
-355 133 0
